language ESSENCE' 1.0

letting n_courses be 92
letting n_periods be 30
letting prerequisite_RelationAsSet_Explicit_1 be
        [1, 1, 1, 1, 2, 2, 2, 2, 2, 2, 2, 3, 3, 3, 3, 3, 4, 4, 4, 4, 4, 4, 4, 5, 5, 5, 5, 5, 5, 6, 6, 6, 6, 6, 6, 6, 6,
         6, 7, 7, 7, 7, 7, 7, 7, 7, 8, 8, 8, 8, 9, 9, 9, 9, 9, 9, 9, 10, 10, 10, 10, 10, 10, 10, 10, 10, 10, 11, 11, 11,
         11, 11, 11, 11, 11, 11, 11, 11, 11, 11, 11, 11, 12, 12, 12, 13, 13, 13, 13, 13, 13, 13, 14, 14, 14, 14, 15, 15,
         15, 15, 15, 15, 16, 16, 16, 16, 16, 16, 17, 17, 17, 17, 17, 17, 18, 18, 18, 18, 18, 18, 18, 19, 19, 19, 19, 19,
         19, 20, 20, 20, 20, 20, 21, 21, 21, 21, 21, 21, 21, 21, 21, 21, 21, 21, 22, 22, 22, 22, 22, 22, 22, 22, 22, 22,
         22, 22, 23, 23, 23, 23, 23, 24, 24, 24, 24, 24, 24, 24, 24, 24, 24, 25, 25, 25, 25, 25, 26, 26, 27, 27, 28, 29,
         29, 29, 30, 30, 30, 31, 31, 31, 31, 31, 32, 32, 32, 32, 32, 33, 33, 33, 33, 33, 34, 34, 34, 35, 36, 37, 37, 37,
         37, 38, 38, 39, 39, 40, 40, 40, 40, 41, 41, 41, 41, 41, 42, 43, 43, 43, 44, 44, 44, 44, 44, 45, 46, 46, 46, 47,
         47, 48, 48, 48, 49, 49, 49, 50, 50, 51, 51, 51, 51, 51, 52, 52, 52, 52, 53, 53, 54, 54, 54, 55, 55, 56, 56, 57,
         58, 58, 58, 59, 59, 59, 59, 61, 61, 61, 62, 62, 62, 63, 63, 63, 63, 65, 65, 65, 66, 66, 66, 66, 67, 67, 68, 68,
         69, 69, 70, 71, 72, 72, 72, 74, 74, 74, 75, 75, 76, 76, 77, 77, 77, 77, 78, 78;
             int(1..314)]
letting prerequisite_RelationAsSet_Explicit_2 be
        [27, 39, 59, 72, 36, 39, 44, 46, 56, 75, 77, 32, 43, 59, 62, 73, 40, 46, 48, 61, 63, 65, 75, 37, 40, 50, 51, 66,
         74, 28, 31, 36, 39, 51, 52, 54, 59, 68, 26, 28, 41, 46, 56, 61, 68, 70, 29, 46, 69, 70, 34, 38, 40, 54, 59, 72,
         77, 33, 35, 41, 45, 56, 57, 62, 66, 68, 75, 26, 29, 30, 36, 44, 47, 48, 49, 53, 55, 62, 64, 66, 68, 70, 32, 51,
         66, 35, 44, 52, 53, 54, 60, 72, 51, 58, 60, 69, 43, 52, 54, 55, 59, 70, 30, 34, 42, 47, 50, 71, 30, 39, 54, 60,
         62, 70, 30, 31, 45, 50, 58, 65, 67, 29, 32, 42, 55, 72, 76, 28, 45, 51, 76, 78, 29, 31, 51, 52, 54, 56, 63, 70,
         72, 74, 76, 77, 27, 34, 37, 38, 42, 48, 59, 60, 64, 75, 77, 78, 38, 46, 53, 72, 77, 28, 33, 39, 40, 41, 47, 50,
         59, 61, 65, 28, 36, 42, 56, 59, 85, 92, 81, 82, 79, 82, 83, 88, 84, 88, 90, 79, 83, 84, 88, 92, 79, 81, 85, 86,
         92, 82, 83, 84, 90, 91, 82, 84, 86, 80, 88, 79, 89, 90, 91, 84, 92, 80, 89, 80, 82, 90, 92, 83, 85, 87, 88, 89,
         91, 82, 87, 91, 80, 83, 85, 86, 90, 82, 82, 84, 87, 88, 91, 81, 82, 85, 79, 82, 86, 85, 90, 82, 85, 90, 91, 92,
         79, 86, 89, 92, 82, 86, 83, 88, 90, 79, 82, 84, 85, 90, 79, 84, 89, 80, 81, 86, 88, 80, 82, 90, 79, 81, 91, 80,
         83, 87, 89, 82, 88, 90, 79, 81, 84, 85, 85, 88, 80, 82, 91, 92, 86, 85, 87, 88, 91, 82, 83, 89, 85, 92, 83, 88,
         83, 84, 86, 92, 89, 90;
             int(1..314)]
letting course_load_Function1D be
        [3, 5, 4, 2, 2, 4, 3, 3, 4, 2, 4, 5, 2, 3, 4, 3, 3, 2, 2, 2, 4, 5, 3, 5, 5, 2, 3, 2, 2, 2, 3, 2, 2, 2, 4, 2, 3,
         3, 2, 2, 3, 5, 3, 2, 3, 5, 4, 3, 3, 2, 2, 4, 2, 2, 4, 2, 4, 3, 2, 4, 3, 3, 2, 3, 3, 4, 4, 2, 2, 3, 3, 3, 2, 3,
         3, 3, 4, 5, 4, 4, 3, 5, 4, 2, 2, 2, 3, 3, 2, 2, 4, 5;
             int(1..92)]
letting load_per_period_ub be 30
letting load_per_period_lb be 8
letting courses_per_period_ub be 6
letting courses_per_period_lb be 3
letting fin1 be 314
letting fin2 be 92
letting fin3 be 5
